29 29
24
3 3 8 26
3 4 8 22
3 5 19 18
3 6 19 23
3 7 8 0
3 8 22 0
3 9 11 20
3 10 22 19
3 11 22 8
3 15 8 7
3 18 19 0
3 20 11 0
4 3 4 0
4 4 25 18
4 5 0 0
4 6 4 23
4 7 25 22
4 9 0 5
4 15 0 14
4 18 25 0
4 20 4 3
5 4 14 0
5 8 14 21
5 17 14 4
